4353.35
0 1 2 3 4 5 7 8 9 10 11 12 13 15 18 20 21 23 34 38 42 43 51 58 0
0 14 16 17 19 24 61 0
0 22 25 26 27 28 29 0
0 30 31 32 33 35 36 64 0
0 40 41 44 45 46 47 48 49 52 68 0
0 50 53 54 55 56 60 69 73 0
0 59 62 66 70 71 74 75 78 91 98 99 57 0
0 65 72 63 0
0 79 82 83 84 86 87 88 67 37 0
0 89 90 92 93 95 94 81 76 39 100 0
0 96 97 80 77 85 6 0
